g3 0 1 0	# problem st_fp8
 24 20 1 0 0	# vars, constraints, objectives, ranges, eqns
 0 1	# nonlinear constraints, objectives
 0 0	# network constraints: nonlinear, linear
 0 24 0	# nonlinear vars in constraints, objectives, both
 0 0 0 1	# linear network variables; functions; arith, flags
 0 0 0 0 0	# discrete variables: binary, integer, nonlinear (b,c,o)
 96 24	# nonzeros in Jacobian, gradients
 3 3	# max name lengths: constraints, variables
 0 0 0 0 0	# common exprs: b,c,o,c1,o1
b
2 0
2 0
2 0
2 0
2 0
2 0
2 0
2 0
2 0
2 0
2 0
2 0
2 0
2 0
2 0
2 0
2 0
2 0
2 0
2 0
2 0
2 0
2 0
2 0
r
1 -29
1 29
1 -41
1 41
1 -13
1 13
1 -21
1 21
1 -8
1 8
1 -24
1 24
1 -20
1 20
1 -24
1 24
1 -16
1 16
1 -12
1 12
C0
n0
C1
n0
C2
n0
C3
n0
C4
n0
C5
n0
C6
n0
C7
n0
C8
n0
C9
n0
C10
n0
C11
n0
C12
n0
C13
n0
C14
n0
C15
n0
C16
n0
C17
n0
C18
n0
C19
n0
O0 0
o54
48
o2
n-7
o5
v0
n2
o2
n300
v0
o2
n-4
o5
v1
n2
o2
n2.7e2
v1
o2
n-6
o5
v2
n2
o2
n4.6e2
v2
o2
n-8
o5
v3
n2
o2
n800
v3
o2
n-12
o5
v4
n2
o2
n7.4e2
v4
o2
n-9
o5
v5
n2
o2
n600
v5
o2
n-14
o5
v6
n2
o2
n5.4e2
v6
o2
n-7
o5
v7
n2
o2
n3.8e2
v7
o2
n-13
o5
v8
n2
o2
n300
v8
o2
n-12
o5
v9
n2
o2
n4.9e2
v9
o2
n-8
o5
v10
n2
o2
n3.8e2
v10
o2
n-4
o5
v11
n2
o2
n7.6e2
v11
o2
n-7
o5
v12
n2
o2
n4.3e2
v12
o2
n-9
o5
v13
n2
o2
n2.5e2
v13
o2
n-16
o5
v14
n2
o2
n3.9e2
v14
o2
n-8
o5
v15
n2
o2
n600
v15
o2
n-4
o5
v16
n2
o2
n2.1e2
v16
o2
n-10
o5
v17
n2
o2
n8.3e2
v17
o2
n-21
o5
v18
n2
o2
n4.7e2
v18
o2
n-13
o5
v19
n2
o2
n6.8e2
v19
o2
n-17
o5
v20
n2
o2
n3.6e2
v20
o2
n-9
o5
v21
n2
o2
n2.9e2
v21
o2
n-8
o5
v22
n2
o2
n400
v22
o2
n-4
o5
v23
n2
o2
n3.1e2
v23
k23
4
8
12
16
20
24
28
32
36
40
44
48
52
56
60
64
68
72
76
80
84
88
92
J0 6
0 -1
4 -1
8 -1
12 -1
16 -1
20 -1
J1 6
0 1
4 1
8 1
12 1
16 1
20 1
J2 6
1 -1
5 -1
9 -1
13 -1
17 -1
21 -1
J3 6
1 1
5 1
9 1
13 1
17 1
21 1
J4 6
2 -1
6 -1
10 -1
14 -1
18 -1
22 -1
J5 6
2 1
6 1
10 1
14 1
18 1
22 1
J6 6
3 -1
7 -1
11 -1
15 -1
19 -1
23 -1
J7 6
3 1
7 1
11 1
15 1
19 1
23 1
J8 4
0 -1
1 -1
2 -1
3 -1
J9 4
0 1
1 1
2 1
3 1
J10 4
4 -1
5 -1
6 -1
7 -1
J11 4
4 1
5 1
6 1
7 1
J12 4
8 -1
9 -1
10 -1
11 -1
J13 4
8 1
9 1
10 1
11 1
J14 4
12 -1
13 -1
14 -1
15 -1
J15 4
12 1
13 1
14 1
15 1
J16 4
16 -1
17 -1
18 -1
19 -1
J17 4
16 1
17 1
18 1
19 1
J18 4
20 -1
21 -1
22 -1
23 -1
J19 4
20 1
21 1
22 1
23 1
G0 24
0 0
1 0
2 0
3 0
4 0
5 0
6 0
7 0
8 0
9 0
10 0
11 0
12 0
13 0
14 0
15 0
16 0
17 0
18 0
19 0
20 0
21 0
22 0
23 0
